lp_solve/lp_examples/ex6.out
Value of objective function:            19979
x1                      32
x2                       2
x3                       1
x4                       0
x5                       0
x6                       0
x7                       0
These are the duals from the node that gave the optimal solution.
r_000001            0.1545
